NAME Original_LP
ROWS
 N  OBJ
 L  Constraint_0
 L  Constraint_1
COLUMNS
    x_0       OBJ       -9.9927072607585981e+00
    x_0       Constraint_0  2.8332110714376357e-03
    x_0       Constraint_1  8.7354090635424919e-01
    x_1       OBJ       9.1262351674997113e+00
    x_1       Constraint_0  4.3065841667107141e-02
    x_1       Constraint_1  6.3233592489933410e-01
    x_2       OBJ       -1.3879512384726116e+00
    x_2       Constraint_0  5.6375933845256676e-01
    x_2       Constraint_1  1.4557121373691173e-01
RHS
    RHS1      Constraint_0  7.9425646640321468e-01
    RHS1      Constraint_1  5.2792401467063932e-01
BOUNDS
ENDATA
